Max time = 7200.0
Tried aggregator 1 time.
MIP Presolve eliminated 7241 rows and 0 columns.
MIP Presolve modified 266 coefficients.
Reduced MIP has 2568 rows, 24082 columns, and 167114 nonzeros.
Reduced MIP has 24082 binaries, 0 generals, 0 SOSs, and 0 indicators.
Presolve time = 0.49 sec. (132.22 ticks)
Tried aggregator 1 time.
Reduced MIP has 2568 rows, 24082 columns, and 167114 nonzeros.
Reduced MIP has 24082 binaries, 0 generals, 0 SOSs, and 0 indicators.
Presolve time = 0.28 sec. (67.23 ticks)
Probing time = 0.26 sec. (8.91 ticks)
Clique table members: 26832.
MIP emphasis: balance optimality and feasibility.
MIP search method: dynamic search.
Parallel mode: deterministic, using up to 4 threads.
Root relaxation solution time = 7.61 sec. (1498.91 ticks)

        Nodes                                         Cuts/
   Node  Left     Objective  IInf  Best Integer    Best Bound    ItCnt     Gap

      0     0       24.0000  2313                     24.0000        0         
      0     2       24.0000  1865                     24.0000    11407         
Elapsed time = 177.18 sec. (30208.68 ticks, tree = 0.01 MB, solutions = 0)
      1     3       24.0000  2018                     24.0000    27301         
      3     5       24.0000  1900                     24.0000    54464         
      4     4       24.0000  2061                     24.0000    38317         
      5     5       24.0000  1790                     24.0000    55150         
      6     4       24.0000  1954                     24.0000    39091         
      7     9       24.0000  2074                     24.0000    89244         
      9     7       24.0000  2056                     24.0000    76140         
     12     8       24.0000  1930                     24.0000    88682         
     14    13       24.0000  1899                     24.0000   124399         
     16    15       24.0000  2176                     24.0000   140364         
Elapsed time = 444.35 sec. (71592.42 ticks, tree = 0.03 MB, solutions = 0)
     17    15       24.0000  2248                     24.0000   131088         
     18    16       24.0000  2078                     24.0000   141647         
     20    12       24.0000  1964                     24.0000   123434         
     22    16       24.0000  2264                     24.0000   148607         
     25    26       24.0000  2009                     24.0000   176754         
     27    18       24.0000  2167                     24.0000   164346         
     28    27       24.0000  2061                     24.0000   179097         
     30    18       24.0000  2039                     24.0000   150790         
     32    20       24.0000  1991                     24.0000   166081         
     33    19       24.0000  2259                     24.0000   157145         
Elapsed time = 581.54 sec. (90620.72 ticks, tree = 0.09 MB, solutions = 0)
     36    30       24.0000  1972                     24.0000   186891         
     37    33       24.0000  2028                     24.0000   196475         
     40    21       24.0000  1968                     24.0000   179690         
     43    39       24.0000  2065                     24.0000   208133         
     46    40       24.0000  1958                     24.0000   211500         
     49    47       24.0000  2127                     24.0000   240458         
     51    43       24.0000  2021                     24.0000   220506         
     53    46       24.0000  1552                     24.0000   247271         
     54    53       24.0000  1783                     24.0000   272246         
     57    49       24.0000  1676                     24.0000   256161         
Elapsed time = 730.42 sec. (112550.64 ticks, tree = 0.25 MB, solutions = 0)
     59    54       24.0000  1859                     24.0000   285195         
     60    57       24.0000  1938                     24.0000   303294         
     63    58       24.0000  1880                     24.0000   307138         
     66    55    infeasible                           24.0000   292939         
     70    56       24.0000  1847                     24.0000   295053         
     73    58       24.0000  1573                     24.0000   300054         
     75    57    infeasible                           24.0000   304605         
     79    62       24.0000  1993                     24.0000   319681         
     82    62    infeasible                           24.0000   342583         
     85    67       24.0000  1692                     24.0000   364347         
Elapsed time = 814.88 sec. (125385.62 ticks, tree = 0.95 MB, solutions = 0)
     89    74       24.0000  1870                     24.0000   384196         
     93    42       24.0000  2082                     24.0000   227177         
     96    67       24.0000  1219                     24.0000   357099         
    101    67       24.0000  1216                     24.0000   360545         
    105    85       24.0000  1203                     24.0000   436088         
    111    81       24.0000  1438                     24.0000   410282         
    117    84       24.0000  1372                     24.0000   414176         
    122    93       24.0000  1589                     24.0000   462187         
    128    87       24.0000  1041                     24.0000   456381         
    134    89       24.0000   995                     24.0000   462119         
Elapsed time = 881.96 sec. (136130.27 ticks, tree = 1.33 MB, solutions = 0)
    138    88       24.0000  1199                     24.0000   429764         
    145    90       24.0000  1070                     24.0000   434779         
    151    91       24.0000   814                     24.0000   483342         
    158    83       24.0000  1564                     24.0000   415752         
    161   102       24.0000  1512                     24.0000   487463         
    172   102       24.0000  1513                     24.0000   491631         
    182   104       24.0000  1443                     24.0000   495652         
    187   117       24.0000   661                     24.0000   572502         
    197   121       24.0000   646                     24.0000   579287         
    203   107       24.0000  1262                     24.0000   508326         
Elapsed time = 945.18 sec. (147266.75 ticks, tree = 1.53 MB, solutions = 0)
    209   107    infeasible                           24.0000   512628         
    219   138    infeasible                           24.0000   702541         
    226   138    infeasible                           24.0000   709690         
    239   142       26.0000   931                     24.0000   716132         
    246   137       24.0000   500                     24.0000   625138         
    255   142    infeasible                           24.0000   732424         
    266   151       26.0000   966                     24.0000   726065         
    271   188       24.0000   381                     24.0000   860434         
    280   192       24.0000   375                     24.0000   868781         
    295   202       26.0000   675                     24.0000   955780         
Elapsed time = 1007.53 sec. (158522.21 ticks, tree = 2.45 MB, solutions = 0)
    302   206       26.0000   668                     24.0000   960804         
    311   212       26.0000   606                     24.0000   968975         
*   316+  167                           24.0000       24.0000             0.00%
    321   218       26.0000   592       24.0000       24.0000   977978    0.00%
    328   224       26.0000   584       24.0000       24.0000   986288    0.00%
    331   160       24.0000  1898       24.0000       24.0000   795459    0.00%
    333   161       24.0000  1847       24.0000       24.0000   800516    0.00%
    334   162       24.0000  1788       24.0000       24.0000   805873    0.00%

Root node processing (before b&c):
  Real time             =  174.05 sec. (29648.20 ticks)
Parallel b&c, 4 threads:
  Real time             =  870.64 sec. (139136.69 ticks)
  Sync time (average)   =   65.23 sec.
  Wait time (average)   =    0.02 sec.
                          ------------
Total (root+branch&cut) = 1044.69 sec. (168784.89 ticks)
P#22 = 1.0
P#39 = 1.0
P#52 = 1.0
P#61 = 1.0
P#66 = 1.0
P#68 = 1.0
P#73 = 1.0
P#82 = 1.0
P#88 = 1.0
P#112 = 1.0
P#122 = 1.0
P#133 = 1.0
P#134 = 1.0
P#145 = 1.0
P#155 = 1.0
P#179 = 1.0
P#185 = 1.0
P#194 = 1.0
P#199 = 1.0
P#201 = 1.0
P#206 = 1.0
P#215 = 1.0
P#228 = 1.0
P#245 = 1.0
P#200 = 1.0
P#67 = 1.0
X#1#185 = 1.0
X#2#134 = 1.0
X#3#215 = 1.0
X#4#200 = 1.0
X#5#245 = 1.0
X#6#66 = 1.0
X#7#155 = 1.0
X#8#22 = 1.0
X#9#67 = 1.0
X#10#82 = 1.0
X#11#201 = 1.0
X#12#199 = 1.0
X#13#122 = 1.0
X#14#228 = 1.0
X#15#194 = 1.0
X#16#112 = 1.0
X#17#179 = 1.0
X#18#68 = 1.0
X#19#88 = 1.0
X#20#145 = 1.0
X#21#206 = 1.0
X#22#61 = 1.0
X#23#133 = 1.0
X#24#73 = 1.0
X#25#52 = 1.0
X#26#39 = 1.0
L#1#1 = 1.0
F#1#26#1 = 1.0
L#1#3 = 1.0
F#1#9#3 = 1.0
L#1#5 = 1.0
F#1#22#5 = 1.0
L#1#7 = 1.0
F#1#24#7 = 1.0
L#1#9 = 1.0
F#1#2#9 = 1.0
L#1#11 = 1.0
F#1#6#11 = 1.0
L#1#13 = 1.0
F#1#17#13 = 1.0
L#1#16 = 1.0
F#1#11#16 = 1.0
L#1#18 = 1.0
F#1#21#18 = 1.0
L#1#20 = 1.0
F#1#8#20 = 1.0
L#1#22 = 1.0
F#1#23#22 = 1.0
L#1#24 = 1.0
F#1#19#24 = 1.0
L#2#1 = 1.0
F#2#25#1 = 1.0
L#2#4 = 1.0
F#2#7#4 = 1.0
L#2#6 = 1.0
F#2#14#6 = 1.0
L#2#8 = 1.0
F#2#17#8 = 1.0
L#2#10 = 1.0
F#2#11#10 = 1.0
L#2#12 = 1.0
F#2#3#12 = 1.0
L#2#14 = 1.0
F#2#12#14 = 1.0
L#2#16 = 1.0
F#2#8#16 = 1.0
L#2#18 = 1.0
F#2#26#18 = 1.0
L#2#20 = 1.0
F#2#22#20 = 1.0
L#2#22 = 1.0
F#2#19#22 = 1.0
L#2#24 = 1.0
F#2#18#24 = 1.0
L#3#1 = 1.0
F#3#10#1 = 1.0
L#3#3 = 1.0
F#3#18#3 = 1.0
L#3#5 = 1.0
F#3#26#5 = 1.0
L#3#7 = 1.0
F#3#9#7 = 1.0
L#3#9 = 1.0
F#3#24#9 = 1.0
L#3#11 = 1.0
F#3#20#11 = 1.0
L#3#13 = 1.0
F#3#14#13 = 1.0
L#3#15 = 1.0
F#3#1#15 = 1.0
L#3#16 = 1.0
F#3#15#16 = 1.0
L#3#18 = 1.0
F#3#12#18 = 1.0
L#3#20 = 1.0
F#3#11#20 = 1.0
L#3#22 = 1.0
F#3#4#22 = 1.0
L#3#24 = 1.0
F#3#25#24 = 1.0
L#4#1 = 1.0
F#4#23#1 = 1.0
L#4#3 = 1.0
F#4#13#3 = 1.0
L#4#5 = 1.0
F#4#16#5 = 1.0
L#4#7 = 1.0
F#4#10#7 = 1.0
L#4#9 = 1.0
F#4#6#9 = 1.0
L#4#11 = 1.0
F#4#22#11 = 1.0
L#4#13 = 1.0
F#4#2#13 = 1.0
L#4#15 = 1.0
F#4#5#15 = 1.0
L#4#17 = 1.0
F#4#9#17 = 1.0
L#4#19 = 1.0
F#4#1#19 = 1.0
L#4#21 = 1.0
F#4#15#21 = 1.0
L#4#23 = 1.0
F#4#21#23 = 1.0
L#4#25 = 1.0
F#4#11#25 = 1.0
L#5#1 = 1.0
F#5#9#1 = 1.0
L#5#3 = 1.0
F#5#22#3 = 1.0
L#5#5 = 1.0
F#5#2#5 = 1.0
L#5#7 = 1.0
F#5#7#7 = 1.0
L#5#8 = 1.0
F#5#1#8 = 1.0
L#5#10 = 1.0
F#5#3#10 = 1.0
L#5#12 = 1.0
F#5#12#12 = 1.0
L#5#14 = 1.0
F#5#21#14 = 1.0
L#5#16 = 1.0
F#5#23#16 = 1.0
L#5#18 = 1.0
F#5#11#18 = 1.0
L#5#20 = 1.0
F#5#16#20 = 0.9999999999999957
L#5#22 = 1.0
F#5#10#22 = 1.0
L#5#24 = 1.0
F#5#26#24 = 1.0
L#6#2 = 1.0
F#6#5#2 = 1.0
L#6#4 = 1.0
F#6#3#4 = 1.0
L#6#6 = 1.0
F#6#17#6 = 1.0
L#6#8 = 1.0
F#6#15#8 = 1.0
L#6#10 = 1.0
F#6#21#10 = 1.0
L#6#12 = 1.0
F#6#11#12 = 1.0
L#6#14 = 1.0
F#6#23#14 = 1.0
L#6#16 = 1.0
F#6#16#16 = 1.0
L#6#18 = 1.0
F#6#25#18 = 1.0
L#6#20 = 1.0
F#6#26#20 = 1.0
L#6#22 = 1.0
F#6#24#22 = 1.0
L#6#25 = 1.0
F#6#2#25 = 1.0
L#7#1 = 1.0
F#7#18#1 = 1.0
L#7#3 = 1.0
F#7#6#3 = 0.9999999999999991
L#7#5 = 1.0
F#7#20#5 = 1.0
L#7#8 = 1.0
F#7#3#8 = 1.0
L#7#10 = 1.0
F#7#14#10 = 1.0
L#7#12 = 1.0
F#7#1#12 = 1.0
L#7#14 = 1.0
F#7#15#14 = 1.0
L#7#16 = 1.0
F#7#12#16 = 1.0
L#7#18 = 1.0
F#7#4#18 = 1.0
L#7#20 = 1.0
F#7#25#20 = 1.0
L#7#22 = 1.0
F#7#8#22 = 1.0
L#7#24 = 1.0
F#7#22#24 = 1.0
L#8#2 = 1.0
F#8#4#2 = 1.0000000000000038
L#8#4 = 1.0
F#8#11#4 = 1.0
L#8#6 = 1.0
F#8#23#6 = 1.0
L#8#9 = 1.0
F#8#10#9 = 1.000000000000006
L#8#11 = 1.0
F#8#26#11 = 1.0
L#8#13 = 1.0
F#8#6#13 = 1.0
L#8#15 = 1.0
F#8#9#15 = 1.0
L#8#17 = 1.0
F#8#5#17 = 1.0
L#8#19 = 1.0
F#8#20#19 = 1.0
L#8#21 = 1.0
F#8#17#21 = 1.0
L#8#23 = 1.0
F#8#15#23 = 1.0
L#8#25 = 1.0
F#8#3#25 = 1.0
L#9#2 = 1.0
F#9#2#2 = 1.0
L#9#4 = 1.0
F#9#20#4 = 1.0
L#9#6 = 1.0
F#9#7#6 = 1.0
L#9#8 = 1.0
F#9#11#8 = 1.0
L#9#10 = 1.0
F#9#17#10 = 1.0
L#9#12 = 1.0
F#9#23#12 = 1.0
L#9#14 = 1.0
F#9#16#14 = 1.0
L#9#16 = 1.0
F#9#19#16 = 1.0
L#9#18 = 1.0
F#9#13#18 = 1.0
L#9#20 = 1.0
F#9#24#20 = 1.0
L#9#22 = 1.0
F#9#25#22 = 1.0
L#9#24 = 1.0
F#9#6#24 = 1.0
L#10#2 = 1.0
F#10#14#2 = 1.0
L#10#4 = 1.0
F#10#1#4 = 1.0
L#10#6 = 1.0
F#10#11#6 = 1.0
L#10#8 = 1.0
F#10#21#8 = 1.0
L#10#10 = 1.0
F#10#23#10 = 1.0
L#10#12 = 1.0
F#10#13#12 = 1.0
L#10#14 = 1.0
F#10#19#14 = 1.0
L#10#15 = 1.0
F#10#25#15 = 1.0
L#10#17 = 1.0
F#10#6#17 = 1.0
L#10#19 = 1.0
F#10#2#19 = 1.0
L#10#21 = 1.0
F#10#9#21 = 1.0
L#10#23 = 1.0
F#10#20#23 = 1.0
L#10#25 = 1.0
F#10#7#25 = 0.9999999999999991
L#11#1 = 1.0
F#11#13#1 = 1.0
L#11#3 = 1.0
F#11#26#3 = 1.0
L#11#5 = 1.0
F#11#25#5 = 1.0
L#11#7 = 1.0
F#11#19#7 = 1.0
L#11#9 = 1.0
F#11#18#9 = 1.0
L#11#11 = 1.0
F#11#24#11 = 1.0
L#11#13 = 1.0
F#11#20#13 = 1.0
L#11#15 = 1.0
F#11#7#15 = 1.0
L#11#17 = 1.0
F#11#14#17 = 1.0
L#11#19 = 1.0
F#11#17#19 = 1.0
L#11#21 = 1.0
F#11#21#21 = 1.0
L#11#23 = 1.0
F#11#12#23 = 1.0
L#11#24 = 1.0
F#11#23#24 = 1.0
L#12#1 = 1.0
F#12#16#1 = 1.0
L#12#3 = 1.0
F#12#8#3 = 1.0
L#12#5 = 1.0
F#12#10#5 = 1.0
L#12#7 = 1.0
F#12#6#7 = 1.0
L#12#9 = 1.0
F#12#22#9 = 1.0
L#12#11 = 1.0
F#12#25#11 = 1.0
L#12#13 = 1.0
F#12#9#13 = 0.9999999999999984
L#12#15 = 1.0
F#12#20#15 = 1.0
L#12#17 = 1.0
F#12#17#17 = 1.0
L#12#19 = 1.0
F#12#14#19 = 1.0
L#12#21 = 1.0
F#12#1#21 = 1.0
L#12#24 = 1.0
F#12#4#24 = 1.0
L#13#2 = 1.0
F#13#12#2 = 1.0
L#13#4 = 1.0
F#13#23#4 = 1.0
L#13#5 = 1.0
F#13#8#5 = 1.0
L#13#7 = 1.0
F#13#25#7 = 1.0
L#13#9 = 1.0
F#13#19#9 = 1.0
L#13#11 = 1.0
F#13#7#11 = 1.0
L#13#13 = 1.0
F#13#22#13 = 1.0
L#13#15 = 1.0
F#13#6#15 = 1.0
L#13#17 = 1.0
F#13#2#17 = 1.0
L#13#19 = 1.0
F#13#5#19 = 1.0
L#13#21 = 1.0
F#13#3#21 = 1.0
L#13#23 = 1.0
F#13#1#23 = 1.0
L#13#25 = 1.0
F#13#21#25 = 1.0
L#14#1 = 1.0
F#14#24#1 = 1.0
L#14#3 = 1.0
F#14#25#3 = 1.0
L#14#5 = 1.0
F#14#6#5 = 1.0
L#14#7 = 1.0
F#14#18#7 = 1.0
L#14#9 = 1.0
F#14#5#9 = 1.0
L#14#11 = 1.0
F#14#9#11 = 1.0000000000000009
L#14#12 = 1.0
F#14#17#12 = 1.0
L#14#14 = 1.0
F#14#1#14 = 1.0
L#14#16 = 1.0
F#14#21#16 = 1.0
L#14#18 = 1.0
F#14#16#18 = 1.0
L#14#20 = 1.0
F#14#4#20 = 1.0
L#14#22 = 1.0
F#14#13#22 = 1.0
L#14#24 = 1.0
F#14#8#24 = 1.0
L#15#1 = 1.0
F#15#22#1 = 1.0000000000000038
L#15#3 = 1.0
F#15#10#3 = 1.0
L#15#5 = 1.0
F#15#19#5 = 1.0000000000000075
L#15#7 = 1.0
F#15#2#7 = 1.0
L#15#9 = 1.0
F#15#9#9 = 1.0
L#15#11 = 1.0
F#15#18#11 = 1.0
L#15#13 = 1.0
F#15#5#13 = 1.0
L#15#15 = 1.0
F#15#14#15 = 1.0
L#15#17 = 1.0
F#15#1#17 = 1.0
L#15#20 = 1.0
F#15#12#20 = 1.0
L#15#22 = 1.0
F#15#11#22 = 1.0
L#15#24 = 1.0
F#15#13#24 = 1.0
L#16#2 = 1.0
F#16#11#2 = 1.0
L#16#4 = 1.0
F#16#15#4 = 1.0
L#16#6 = 1.0
F#16#13#6 = 1.0
L#16#7 = 1.0
F#16#8#7 = 1.0
L#16#9 = 1.0
F#16#26#9 = 1.0
L#16#11 = 1.0
F#16#10#11 = 1.0
L#16#13 = 1.0
F#16#24#13 = 1.0
L#16#15 = 1.0
F#16#18#15 = 1.0
L#16#17 = 1.0
F#16#20#17 = 1.0
L#16#19 = 1.0
F#16#7#19 = 1.0
L#16#21 = 1.0
F#16#2#21 = 1.0
L#16#23 = 1.0
F#16#3#23 = 1.0
L#16#25 = 1.0
F#16#1#25 = 1.0
L#17#1 = 1.0
F#17#19#1 = 1.0
L#17#3 = 1.0
F#17#24#3 = 1.0
L#17#5 = 1.0
F#17#18#5 = 1.0000000000000078
L#17#7 = 1.0
F#17#20#7 = 1.0
L#17#9 = 1.0
F#17#7#9 = 1.0
L#17#11 = 1.0
F#17#5#11 = 1.0
L#17#14 = 1.0
F#17#3#14 = 1.0
L#17#16 = 1.0
F#17#4#16 = 1.0
L#17#18 = 1.0
F#17#15#18 = 1.0
L#17#20 = 1.0
F#17#13#20 = 1.0
L#17#22 = 1.0
F#17#16#22 = 1.0
L#17#24 = 1.0
F#17#10#24 = 1.0
L#18#2 = 1.0
F#18#20#2 = 1.0
L#18#4 = 1.0
F#18#5#4 = 1.0
L#18#6 = 1.0
F#18#1#6 = 1.0
L#18#8 = 1.0
F#18#12#8 = 0.9999999999999984
L#18#10 = 1.0
F#18#4#10 = 1.0
L#18#12 = 1.0
F#18#21#12 = 1.0
L#18#14 = 1.0
F#18#13#14 = 1.0
L#18#16 = 1.0
F#18#26#16 = 1.0
L#18#18 = 1.0
F#18#8#18 = 1.0
L#18#20 = 1.0
F#18#10#20 = 1.0
L#18#22 = 1.0
F#18#22#22 = 1.0
L#18#23 = 1.0
F#18#6#23 = 1.0
L#18#25 = 1.0
F#18#9#25 = 1.0
L#19#2 = 1.0
F#19#3#2 = 1.0
L#19#4 = 1.0
F#19#12#4 = 1.0
L#19#6 = 1.0
F#19#4#6 = 1.0
L#19#8 = 1.0
F#19#8#8 = 1.000000000000006
L#19#10 = 1.0
F#19#16#10 = 1.0
L#19#12 = 1.0
F#19#26#12 = 0.9999999999999999
L#19#13 = 1.0
F#19#25#13 = 1.0
L#19#15 = 1.0
F#19#24#15 = 1.0
L#19#17 = 1.0
F#19#18#17 = 1.0
L#19#19 = 1.0
F#19#6#19 = 1.0
L#19#21 = 1.0
F#19#5#21 = 1.0
L#19#23 = 1.0
F#19#7#23 = 1.0
L#19#25 = 1.0
F#19#14#25 = 1.0
L#20#1 = 1.0
F#20#6#1 = 1.0
L#20#3 = 1.0
F#20#2#3 = 1.0
L#20#6 = 1.0
F#20#5#6 = 1.0
L#20#8 = 1.0
F#20#14#8 = 1.0
L#20#10 = 1.0
F#20#1#10 = 0.9999999999999999
L#20#12 = 1.0
F#20#15#12 = 1.0
L#20#14 = 1.0
F#20#4#14 = 1.0
L#20#16 = 1.0
F#20#13#16 = 1.0
L#20#18 = 1.0
F#20#23#18 = 1.0
L#20#20 = 1.0
F#20#19#20 = 1.0
L#20#22 = 1.0
F#20#26#22 = 1.0
L#20#24 = 1.0
F#20#24#24 = 1.0
L#21#1 = 1.0
F#21#8#1 = 1.0000000000000038
L#21#3 = 1.0
F#21#19#3 = 1.0
L#21#5 = 1.0
F#21#9#5 = 1.0000000000000009
L#21#7 = 1.0
F#21#22#7 = 1.0
L#21#9 = 1.0
F#21#20#9 = 1.0
L#21#11 = 1.0
F#21#2#11 = 1.0000000000000009
L#21#13 = 1.0
F#21#7#13 = 1.0
L#21#15 = 1.0
F#21#17#15 = 1.0
L#21#17 = 1.0
F#21#3#17 = 1.0
L#21#19 = 1.0
F#21#15#19 = 1.0
L#21#20 = 1.0
F#21#23#20 = 1.0
L#21#22 = 1.0
F#21#12#22 = 1.0
L#21#24 = 1.0
F#21#16#24 = 1.0
L#22#2 = 1.0
F#22#17#2 = 1.0
L#22#4 = 1.0
F#22#14#4 = 1.0
L#22#6 = 1.0
F#22#3#6 = 1.0
L#22#8 = 1.0
F#22#23#8 = 1.0
L#22#10 = 1.0
F#22#8#10 = 1.0
L#22#12 = 1.0
F#22#16#12 = 0.9999999999999999
L#22#14 = 1.0
F#22#11#14 = 1.0
L#22#16 = 1.0
F#22#10#16 = 1.0
L#22#18 = 1.0
F#22#19#18 = 1.0
L#22#21 = 1.0
F#22#6#21 = 1.0
L#22#23 = 1.0
F#22#9#23 = 1.0
L#22#25 = 1.0
F#22#20#25 = 1.0
L#23#2 = 1.0
F#23#15#2 = 1.0000000000000038
L#23#3 = 1.0
F#23#16#3 = 1.0
L#23#5 = 1.0
F#23#24#5 = 1.0
L#23#7 = 1.0
F#23#26#7 = 1.0
L#23#9 = 1.0
F#23#25#9 = 1.0
L#23#11 = 1.0
F#23#19#11 = 1.0
L#23#13 = 1.0
F#23#18#13 = 1.0
L#23#15 = 1.0
F#23#2#15 = 1.0
L#23#17 = 1.0
F#23#7#17 = 1.0
L#23#19 = 1.0
F#23#3#19 = 1.0
L#23#21 = 1.0
F#23#14#21 = 1.0
L#23#23 = 1.0
F#23#17#23 = 1.0
L#23#25 = 1.0
F#23#12#25 = 1.0
L#24#2 = 1.0
F#24#7#2 = 1.0
L#24#4 = 1.0
F#24#21#4 = 1.0
L#24#6 = 1.0
F#24#15#6 = 1.0
L#24#8 = 1.0
F#24#13#8 = 1.0
L#24#10 = 1.0
F#24#12#10 = 1.0
L#24#12 = 1.0
F#24#4#12 = 0.999999999999994
L#24#14 = 1.0
F#24#8#14 = 1.0
L#24#16 = 1.0
F#24#25#16 = 1.0
L#24#18 = 1.0
F#24#10#18 = 1.0
L#24#19 = 1.0
F#24#22#19 = 1.0
L#24#21 = 1.0
F#24#18#21 = 1.0
L#24#23 = 1.0
F#24#2#23 = 1.0
L#24#25 = 1.0
F#24#5#25 = 1.0
L#25#2 = 1.0
F#25#1#2 = 1.0
L#25#4 = 1.0
F#25#4#4 = 1.0
L#25#6 = 1.0
F#25#21#6 = 1.0
L#25#8 = 1.0
F#25#16#8 = 1.0
L#25#10 = 1.0
F#25#15#10 = 1.0
L#25#12 = 1.0
F#25#8#12 = 1.0
L#25#14 = 1.0
F#25#26#14 = 1.0
L#25#17 = 1.0
F#25#22#17 = 1.0
L#25#19 = 1.0
F#25#18#19 = 1.0
L#25#21 = 1.0
F#25#20#21 = 1.0
L#25#23 = 1.0
F#25#5#23 = 1.0
L#25#25 = 1.0
F#25#17#25 = 1.0
L#26#2 = 1.0
F#26#21#2 = 1.0
L#26#4 = 1.0
F#26#17#4 = 1.0
L#26#6 = 1.0
F#26#12#6 = 1.0
L#26#8 = 1.0
F#26#4#8 = 1.0
L#26#10 = 1.0
F#26#13#10 = 1.0
L#26#13 = 1.0
F#26#10#13 = 1.0
L#26#15 = 1.0
F#26#22#15 = 1.0
L#26#17 = 1.0
F#26#24#17 = 1.0
L#26#19 = 1.0
F#26#9#19 = 1.0
L#26#21 = 1.0
F#26#7#21 = 1.0
L#26#23 = 1.0
F#26#14#23 = 1.0
L#26#25 = 1.0
F#26#15#25 = 1.0
